
Gurobi 6.5.2 (win64) logging started 07/23/16 03:56:41


Gurobi 6.5.2 (win64) logging started 07/23/16 03:56:41

Optimize a model with 25878 rows, 1444 columns and 56026 nonzeros
Coefficient statistics:
  Matrix range    [4e-06, 1e+02]
  Objective range [1e+00, 1e+00]
  Bounds range    [1e+00, 1e+00]
  RHS range       [1e+00, 9e+02]
Presolve removed 25012 rows and 159 columns
Presolve time: 0.05s
Presolved: 866 rows, 1285 columns, 6127 nonzeros
Variable types: 241 continuous, 1044 integer (1044 binary)

Root relaxation: objective 1.952752e+02, 2037 iterations, 0.08 seconds

    Nodes    |    Current Node    |     Objective Bounds      |     Work
 Expl Unexpl |  Obj  Depth IntInf | Incumbent    BestBd   Gap | It/Node Time

     0     0  195.27518    0  190          -  195.27518      -     -    0s
H    0     0                    1148.1277635  195.27518  83.0%     -    0s
     0     0  206.88863    0  177 1148.12776  206.88863  82.0%     -    0s
     0     0  207.61276    0  149 1148.12776  207.61276  81.9%     -    0s
H    0     0                     215.3116322  207.61276  3.58%     -    0s
     0     0  208.84335    0  151  215.31163  208.84335  3.00%     -    0s
     0     0  212.11571    0  167  215.31163  212.11571  1.48%     -    0s
     0     0  212.21668    0  129  215.31163  212.21668  1.44%     -    0s
     0     0  212.23838    0  129  215.31163  212.23838  1.43%     -    0s
     0     0  212.38027    0  130  215.31163  212.38027  1.36%     -    0s
     0     0  212.39394    0  130  215.31163  212.39394  1.36%     -    0s
     0     0  212.39456    0  133  215.31163  212.39456  1.35%     -    0s
     0     0  212.39456    0  112  215.31163  212.39456  1.35%     -    0s
     0     0  212.39456    0  125  215.31163  212.39456  1.35%     -    0s
     0     0  212.90422    0  133  215.31163  212.90422  1.12%     -    0s
H    0     0                     215.2153022  212.90422  1.07%     -    0s
     0     0  212.95983    0  131  215.21530  212.95983  1.05%     -    0s
     0     0  213.32120    0  101  215.21530  213.32120  0.88%     -    0s
     0     0  213.34196    0  105  215.21530  213.34196  0.87%     -    0s
     0     0  213.34847    0  110  215.21530  213.34847  0.87%     -    0s
     0     0  213.46817    0   73  215.21530  213.46817  0.81%     -    0s
H    0     0                     215.0627452  213.46817  0.74%     -    0s
     0     0  213.46817    0   73  215.06275  213.46817  0.74%     -    0s
H    0     0                     215.0515242  213.46817  0.74%     -    0s
H    0     0                     214.9969553  213.46817  0.71%     -    0s
     0     0  213.46817    0  117  214.99696  213.46817  0.71%     -    0s
     0     0  213.46817    0  118  214.99696  213.46817  0.71%     -    0s
     0     0  213.46817    0  108  214.99696  213.46817  0.71%     -    0s
     0     0  213.72360    0   99  214.99696  213.72360  0.59%     -    0s
H    0     0                     214.8989066  213.72360  0.55%     -    0s
     0     0  213.84981    0   99  214.89891  213.84981  0.49%     -    0s
     0     0  213.85076    0   95  214.89891  213.85076  0.49%     -    0s
H    0     0                     214.8983430  213.85076  0.49%     -    0s
     0     0  213.85116    0  101  214.89834  213.85116  0.49%     -    0s
     0     0  213.85478    0   73  214.89834  213.85478  0.49%     -    1s
     0     0  213.85552    0   80  214.89834  213.85552  0.49%     -    1s
     0     0  213.85552    0   80  214.89834  213.85552  0.49%     -    1s
H    0     0                     214.8006300  213.85552  0.44%     -    1s
     0     2  213.85552    0   80  214.80063  213.85552  0.44%     -    1s
H  169   118                     214.7890430  214.24670  0.25%  17.6    1s
*  282   184              24     214.7811863  214.24670  0.25%  17.1    1s
H  315   187                     214.7780142  214.24670  0.25%  16.9    1s
H  324   193                     214.7765604  214.24670  0.25%  17.1    1s
H  409   228                     214.7707569  214.34298  0.20%  17.0    1s
H  454   246                     214.7686830  214.35201  0.19%  16.9    1s
H  538   251                     214.7495360  214.36665  0.18%  17.3    1s
H 1177   489                     214.7446186  214.63429  0.05%  19.6    3s
H 1989   180                     214.7446025  214.70406  0.02%  16.8    3s

Cutting planes:
  Gomory: 34
  MIR: 32
  Flow cover: 19

Explored 2015 nodes (43969 simplex iterations) in 3.86 seconds
Thread count was 8 (of 8 available processors)

Optimal solution found (tolerance 1.00e-04)
Warning: max constraint violation (5.6273e-06) exceeds tolerance
Best objective 2.147446025043e+02, best bound 2.147446025043e+02, gap 0.0%

Wrote requested result file 'H2\instance29\\Results29E_Sol6.lp'

